c Best-of-random test
c Algorithm against which generated: ImprovedShortestPath
c Target objective: edgeCount
c Index in row: 8
        
p max 99 354
n 1 s
n 99 t
      
a 1 4 9999
a 4 1 9999
a 1 2 9999
a 2 1 9999
a 4 7 9999
a 7 4 9999
a 2 3 9999
a 3 2 9999
a 2 5 9999
a 5 2 9999
a 4 5 9999
a 5 4 9999
a 5 8 9999
a 8 5 9999
a 5 6 9999
a 6 5 9999
a 3 6 9999
a 6 3 9999
a 7 8 9999
a 8 7 9999
a 6 9 9999
a 9 6 9999
a 8 9 9999
a 9 8 9999
a 10 13 9999
a 13 10 9999
a 10 11 9999
a 11 10 9999
a 13 16 9999
a 16 13 9999
a 11 12 9999
a 12 11 9999
a 11 14 9999
a 14 11 9999
a 13 14 9999
a 14 13 9999
a 14 17 9999
a 17 14 9999
a 14 15 9999
a 15 14 9999
a 12 15 9999
a 15 12 9999
a 16 17 9999
a 17 16 9999
a 15 18 9999
a 18 15 9999
a 17 18 9999
a 18 17 9999
a 19 22 9999
a 22 19 9999
a 19 20 9999
a 20 19 9999
a 22 25 9999
a 25 22 9999
a 20 21 9999
a 21 20 9999
a 20 23 9999
a 23 20 9999
a 22 23 9999
a 23 22 9999
a 23 26 9999
a 26 23 9999
a 23 24 9999
a 24 23 9999
a 21 24 9999
a 24 21 9999
a 25 26 9999
a 26 25 9999
a 24 27 9999
a 27 24 9999
a 26 27 9999
a 27 26 9999
a 28 31 9999
a 31 28 9999
a 28 29 9999
a 29 28 9999
a 31 34 9999
a 34 31 9999
a 29 30 9999
a 30 29 9999
a 29 32 9999
a 32 29 9999
a 31 32 9999
a 32 31 9999
a 32 35 9999
a 35 32 9999
a 32 33 9999
a 33 32 9999
a 30 33 9999
a 33 30 9999
a 34 35 9999
a 35 34 9999
a 33 36 9999
a 36 33 9999
a 35 36 9999
a 36 35 9999
a 37 40 9999
a 40 37 9999
a 37 38 9999
a 38 37 9999
a 40 43 9999
a 43 40 9999
a 38 39 9999
a 39 38 9999
a 38 41 9999
a 41 38 9999
a 40 41 9999
a 41 40 9999
a 41 44 9999
a 44 41 9999
a 41 42 9999
a 42 41 9999
a 39 42 9999
a 42 39 9999
a 43 44 9999
a 44 43 9999
a 42 45 9999
a 45 42 9999
a 44 45 9999
a 45 44 9999
a 46 49 9999
a 49 46 9999
a 46 47 9999
a 47 46 9999
a 49 52 9999
a 52 49 9999
a 47 48 9999
a 48 47 9999
a 47 50 9999
a 50 47 9999
a 49 50 9999
a 50 49 9999
a 50 53 9999
a 53 50 9999
a 50 51 9999
a 51 50 9999
a 48 51 9999
a 51 48 9999
a 52 53 9999
a 53 52 9999
a 51 54 9999
a 54 51 9999
a 53 54 9999
a 54 53 9999
a 55 58 9999
a 58 55 9999
a 55 56 9999
a 56 55 9999
a 58 61 9999
a 61 58 9999
a 56 57 9999
a 57 56 9999
a 56 59 9999
a 59 56 9999
a 58 59 9999
a 59 58 9999
a 59 62 9999
a 62 59 9999
a 59 60 9999
a 60 59 9999
a 57 60 9999
a 60 57 9999
a 61 62 9999
a 62 61 9999
a 60 63 9999
a 63 60 9999
a 62 63 9999
a 63 62 9999
a 64 67 9999
a 67 64 9999
a 64 65 9999
a 65 64 9999
a 67 70 9999
a 70 67 9999
a 65 66 9999
a 66 65 9999
a 65 68 9999
a 68 65 9999
a 67 68 9999
a 68 67 9999
a 68 71 9999
a 71 68 9999
a 68 69 9999
a 69 68 9999
a 66 69 9999
a 69 66 9999
a 70 71 9999
a 71 70 9999
a 69 72 9999
a 72 69 9999
a 71 72 9999
a 72 71 9999
a 73 76 9999
a 76 73 9999
a 73 74 9999
a 74 73 9999
a 76 79 9999
a 79 76 9999
a 74 75 9999
a 75 74 9999
a 74 77 9999
a 77 74 9999
a 76 77 9999
a 77 76 9999
a 77 80 9999
a 80 77 9999
a 77 78 9999
a 78 77 9999
a 75 78 9999
a 78 75 9999
a 79 80 9999
a 80 79 9999
a 78 81 9999
a 81 78 9999
a 80 81 9999
a 81 80 9999
a 82 85 9999
a 85 82 9999
a 82 83 9999
a 83 82 9999
a 85 88 9999
a 88 85 9999
a 83 84 9999
a 84 83 9999
a 83 86 9999
a 86 83 9999
a 85 86 9999
a 86 85 9999
a 86 89 9999
a 89 86 9999
a 86 87 9999
a 87 86 9999
a 84 87 9999
a 87 84 9999
a 88 89 9999
a 89 88 9999
a 87 90 9999
a 90 87 9999
a 89 90 9999
a 90 89 9999
a 91 94 9999
a 94 91 9999
a 91 92 9999
a 92 91 9999
a 94 97 9999
a 97 94 9999
a 92 93 9999
a 93 92 9999
a 92 95 9999
a 95 92 9999
a 94 95 9999
a 95 94 9999
a 95 98 9999
a 98 95 9999
a 95 96 9999
a 96 95 9999
a 93 96 9999
a 96 93 9999
a 97 98 9999
a 98 97 9999
a 96 99 9999
a 99 96 9999
a 98 99 9999
a 99 98 9999
a 1 18 993
a 2 11 1047
a 3 14 60
a 4 17 1094
a 5 15 471
a 6 13 428
a 7 16 492
a 8 10 442
a 9 12 411
a 10 20 538
a 11 22 253
a 12 19 343
a 13 25 876
a 14 26 769
a 15 24 787
a 16 21 667
a 17 27 823
a 18 23 1060
a 19 36 703
a 20 28 536
a 21 34 727
a 22 31 874
a 23 29 11
a 24 33 408
a 25 32 32
a 26 35 275
a 27 30 1107
a 28 44 83
a 29 45 651
a 30 37 854
a 31 41 384
a 32 39 794
a 33 43 474
a 34 40 225
a 35 42 618
a 36 38 816
a 37 54 635
a 38 46 701
a 39 47 144
a 40 49 567
a 41 53 810
a 42 52 110
a 43 50 951
a 44 48 335
a 45 51 514
a 46 58 726
a 47 59 969
a 48 61 484
a 49 62 418
a 50 55 12
a 51 63 839
a 52 56 7
a 53 60 143
a 54 57 854
a 55 65 543
a 56 67 547
a 57 68 545
a 58 64 589
a 59 70 253
a 60 71 511
a 61 66 810
a 62 72 257
a 63 69 343
a 64 77 355
a 65 78 128
a 66 75 964
a 67 81 433
a 68 79 549
a 69 73 597
a 70 80 2
a 71 76 108
a 72 74 1002
a 73 87 689
a 74 90 160
a 75 86 506
a 76 82 419
a 77 84 365
a 78 89 469
a 79 85 559
a 80 83 203
a 81 88 719
a 82 92 273
a 83 93 128
a 84 99 713
a 85 96 814
a 86 94 62
a 87 97 253
a 88 95 517
a 89 98 1108
a 90 91 166
